max: r;
r <= 0.0386000000000002 + 0.607766666666666 * c2 + 0.589466666666666 - 0.666666666666667 * c2;
r <= 0.5 * c1 + 0.607766666666666 * c - 0.607766666666666 * c1 + 0.784466666666667 - 0.784466666666667 * c;
r <= 0.0965000000000005 + 0.5 * c1 + 0.607766666666666 * c - 0.607766666666666 * c1 + 0.666666666666667 - 0.666666666666667 * c - 0.0772000000000004;
r <= 0.822684144134262 * c1;
r <= 0.774751423472422 * c2;
r <= 0.637375711736211 * c1 + 0.774751423472422 * c - 0.774751423472422 * c1;
c1 <= 1;
c2 <= 1;
c <= 1;
c <= c1 + c2;
c >= c1;
c >= c2;
